
Gurobi 9.5.0 (linux64) logging started Fri Dec  8 09:14:02 2023

Set parameter LogFile to value "/lustre1/scratch/348/vsc34888/JointResearch/05.Models/06.Benchmarking/F.Representative_days_based_on_Line_Benefit_NN_OC_fy_1/RTS24_mod1_ByStages_nc90/openStarNet_RTS24_mod1_ByStages_nc90.log"
Set parameter Method to value 2
Set parameter MIPFocus to value 1
Set parameter Presolve to value 2
Set parameter RINS to value 100
Set parameter MIPGap to value 0.01
Set parameter Threads to value 36
Set parameter TimeLimit to value 259200
Set parameter IterationLimit to value 760000000
Gurobi Optimizer version 9.5.0 build v9.5.0rc5 (linux64)
Thread count: 36 physical cores, 36 logical processors, using up to 36 threads
Optimize a model with 32308 rows, 21794 columns and 87989 nonzeros
Model fingerprint: 0x2511680e
Variable types: 21773 continuous, 21 integer (21 binary)
Coefficient statistics:
  Matrix range     [6e-04, 1e+03]
  Objective range  [1e+00, 1e+00]
  Bounds range     [3e-05, 3e+00]
  RHS range        [3e-05, 3e+00]
Presolve removed 19242 rows and 11041 columns
Presolve time: 0.12s
Presolved: 13066 rows, 10753 columns, 47179 nonzeros
Variable types: 10732 continuous, 21 integer (21 binary)
Found heuristic solution: objective 82.4724685
Root relaxation presolve removed 7 rows and 7 columns
Root relaxation presolved: 13059 rows, 10746 columns, 47165 nonzeros

Root barrier log...

Ordering time: 0.00s

Barrier statistics:
 Dense cols : 21
 AA' NZ     : 8.763e+04
 Factor NZ  : 2.509e+05 (roughly 12 MB of memory)
 Factor Ops : 5.145e+06 (less than 1 second per iteration)
 Threads    : 36

                  Objective                Residual
Iter       Primal          Dual         Primal    Dual     Compl     Time
   0   6.42395150e+05 -9.98850644e+07  5.20e+00 1.79e+02  9.14e+03     0s
   1   9.29266173e+04 -2.55145726e+07  6.51e-01 3.49e-09  1.24e+03     0s
   2   3.57538729e+04 -3.83862742e+06  1.62e-01 1.09e-09  1.63e+02     0s
   3   1.64740529e+04 -3.36379235e+05  4.79e-03 4.23e-10  1.18e+01     0s
   4   5.26999738e+03 -5.25399946e+04  7.44e-05 5.56e-11  1.90e+00     0s
   5   1.71371413e+03 -1.06126716e+04  1.16e-05 1.08e-11  4.05e-01     0s
   6   6.87591720e+02 -2.77054956e+03  2.33e-06 2.98e-12  1.14e-01     0s
   7   4.11509433e+02 -8.78767110e+02  9.55e-07 1.82e-12  4.24e-02     0s
   8   1.94304421e+02 -2.80696002e+02  3.18e-07 1.82e-12  1.56e-02     0s
   9   1.30208366e+02 -8.96907940e+01  1.76e-07 9.09e-13  7.22e-03     0s
  10   7.98252512e+01 -4.81283138e+00  7.65e-08 1.36e-12  2.78e-03     0s
  11   5.80649003e+01  1.89295406e+01  3.74e-08 9.09e-13  1.29e-03     0s
  12   5.02805168e+01  2.31780573e+01  2.31e-08 9.09e-13  8.90e-04     0s
  13   4.52011500e+01  2.56661479e+01  1.40e-08 9.09e-13  6.42e-04     0s
  14   4.25249558e+01  3.09661368e+01  9.33e-09 9.09e-13  3.80e-04     0s
  15   4.07082736e+01  3.38672895e+01  6.16e-09 9.09e-13  2.25e-04     0s
  16   3.98019676e+01  3.47026075e+01  4.52e-09 9.09e-13  1.67e-04     0s
  17   3.85421154e+01  3.56622881e+01  2.42e-09 9.09e-13  9.46e-05     0s
  18   3.76924506e+01  3.64345134e+01  9.04e-10 1.82e-12  4.13e-05     0s
  19   3.74329833e+01  3.69160087e+01  4.40e-10 9.09e-13  1.70e-05     0s
  20   3.73580810e+01  3.69694014e+01  3.09e-10 9.09e-13  1.28e-05     0s
  21   3.72835571e+01  3.70035256e+01  1.84e-10 9.09e-13  9.20e-06     0s
  22   3.72593025e+01  3.70783024e+01  1.43e-10 1.82e-12  5.95e-06     0s
  23   3.72339618e+01  3.70902608e+01  1.01e-10 9.09e-13  4.72e-06     0s
  24   3.72034865e+01  3.71595028e+01  4.92e-11 1.36e-12  1.44e-06     0s
  25   3.71768525e+01  3.71706747e+01  2.61e-11 9.09e-13  2.03e-07     0s
  26   3.71745043e+01  3.71727926e+01  4.90e-11 1.82e-12  5.62e-08     1s
  27   3.71739855e+01  3.71736400e+01  5.01e-11 2.33e-12  1.13e-08     1s
  28   3.71738623e+01  3.71738090e+01  4.46e-11 3.56e-12  1.75e-09     1s
  29   3.71738389e+01  3.71738301e+01  6.51e-11 1.82e-12  2.89e-10     1s
  30   3.71738367e+01  3.71738356e+01  5.46e-10 9.09e-13  3.56e-11     1s
  31   3.71738365e+01  3.71738364e+01  6.99e-09 1.82e-12  2.22e-12     1s

Barrier solved model in 31 iterations and 0.53 seconds (0.43 work units)
Optimal objective 3.71738365e+01


Root relaxation: objective 3.717384e+01, 1815 iterations, 0.36 seconds (0.26 work units)

    Nodes    |    Current Node    |     Objective Bounds      |     Work
 Expl Unexpl |  Obj  Depth IntInf | Incumbent    BestBd   Gap | It/Node Time

     0     0   37.17384    0   13   82.47247   37.17384  54.9%     -    0s
     0     0   37.44983    0   12   82.47247   37.44983  54.6%     -    1s
H    0     0                      72.9304833   37.44995  48.6%     -    1s
H    0     0                      69.8862061   37.44995  46.4%     -    1s
     0     0   37.44995    0   12   69.88621   37.44995  46.4%     -    1s
     0     0   37.86820    0    8   69.88621   37.86820  45.8%     -    1s
     0     0   38.05114    0   10   69.88621   38.05114  45.6%     -    2s
     0     0   38.09519    0   10   69.88621   38.09519  45.5%     -    2s
     0     0   38.11318    0    9   69.88621   38.11318  45.5%     -    2s
     0     0   38.16990    0    9   69.88621   38.16990  45.4%     -    2s
H    0     0                      59.0668785   38.18176  35.4%     -    2s
     0     0   38.18176    0   10   59.06688   38.18176  35.4%     -    2s
     0     0   38.18365    0   11   59.06688   38.18365  35.4%     -    3s
H    0     0                      55.8218995   38.18365  31.6%     -    9s
     0     2   38.18365    0   11   55.82190   38.18365  31.6%     -   10s
H   28    30                      55.2264176   39.20663  29.0%   545   11s
H   97   119                      54.7811466   40.89461  25.3%   601   16s
H  102   119                      54.7405807   40.89461  25.3%   606   16s
   133   141   45.46077    8   12   54.74058   40.89461  25.3%   573   23s
   258   183     cutoff    9        54.74058   40.89461  25.3%   450   25s
  1173   226   49.99457    7    8   54.74058   46.39986  15.2%   318   31s
  1899   133   51.69986   10   10   54.74058   48.30543  11.8%   275   48s
  2042    80   53.78113   11    9   54.74058   48.30543  11.8%   267   51s

Cutting planes:
  Gomory: 2
  Implied bound: 89
  MIR: 405
  RLT: 1
  Relax-and-lift: 103

Explored 2315 nodes (584411 simplex iterations) in 52.49 seconds (72.65 work units)
Thread count was 36 (of 36 available processors)

Solution count 8: 54.7406 54.7811 55.2264 ... 82.4725

Optimal solution found (tolerance 1.00e-02)
Best objective 5.474058065672e+01, best bound 5.474058065672e+01, gap 0.0000%

Gurobi 9.5.0 (linux64) logging started Fri Dec  8 09:14:59 2023

Set parameter LogFile to value "/lustre1/scratch/348/vsc34888/JointResearch/05.Models/06.Benchmarking/F.Representative_days_based_on_Line_Benefit_NN_OC_fy_1/RTS24_mod1_ByStages_nc90/openStarNet_RTS24_mod1_ByStages_nc90.log"
Set parameter Method to value 2
Set parameter MIPFocus to value 1
Set parameter Presolve to value 2
Set parameter RINS to value 100
Set parameter MIPGap to value 0.01
Set parameter Threads to value 36
Set parameter TimeLimit to value 259200
Set parameter IterationLimit to value 760000000
No parameters matching 'relax_integrality' found
Gurobi Optimizer version 9.5.0 build v9.5.0rc5 (linux64)
Thread count: 36 physical cores, 36 logical processors, using up to 36 threads
Optimize a model with 32308 rows, 21773 columns and 80324 nonzeros
Model fingerprint: 0xf1cc8496
Coefficient statistics:
  Matrix range     [6e-04, 1e+03]
  Objective range  [1e+00, 1e+00]
  Bounds range     [3e-05, 3e+00]
  RHS range        [3e-05, 2e+01]
Presolve removed 26871 rows and 12148 columns
Presolve time: 0.04s
Presolved: 5437 rows, 9780 columns, 24625 nonzeros

Ordering time: 0.00s

Barrier statistics:
 AA' NZ     : 1.275e+04
 Factor NZ  : 4.705e+04 (roughly 5 MB of memory)
 Factor Ops : 6.458e+05 (less than 1 second per iteration)
 Threads    : 1

                  Objective                Residual
Iter       Primal          Dual         Primal    Dual     Compl     Time
   0   2.12478595e+06 -8.35009738e+07  8.13e+00 7.05e+02  4.46e+04     0s
   1   2.14359473e+05 -5.63401920e+07  7.94e-01 4.29e-11  6.55e+03     0s
   2   7.70875421e+04 -1.99308852e+07  2.70e-01 1.10e-10  1.81e+03     0s
   3   3.82978692e+04 -5.83115007e+06  8.71e-02 7.54e-11  4.50e+02     0s
   4   2.26668955e+04 -1.36193485e+06  4.47e-03 5.64e-11  8.70e+01     0s
   5   1.56968171e+04 -2.25658788e+05  5.91e-12 3.82e-11  1.49e+01     0s
   6   6.69189985e+03 -5.88818653e+04  1.71e-12 1.38e-11  4.04e+00     0s
   7   1.34193836e+03 -7.93006036e+03  2.42e-12 1.09e-11  5.72e-01     0s
   8   3.78885655e+02 -7.92820619e+02  1.69e-12 5.46e-12  7.23e-02     0s
   9   1.94875564e+02 -3.43252043e+02  7.50e-13 3.64e-12  3.32e-02     0s
  10   1.35654590e+02 -1.26928193e+02  3.43e-13 7.28e-12  1.62e-02     0s
  11   9.69488093e+01 -1.87003068e+01  5.05e-12 3.64e-12  7.13e-03     0s
  12   7.62849991e+01  2.41327766e+01  3.86e-12 3.64e-12  3.22e-03     0s
  13   6.02281443e+01  4.59209546e+01  1.54e-12 7.28e-12  8.83e-04     0s
  14   5.64722661e+01  5.31311000e+01  6.12e-13 3.64e-12  2.06e-04     0s
  15   5.53077100e+01  5.42398332e+01  2.14e-12 1.46e-11  6.59e-05     0s
  16   5.49308738e+01  5.45518052e+01  4.20e-11 3.64e-12  2.34e-05     0s
  17   5.47813855e+01  5.46807481e+01  2.28e-11 3.64e-12  6.21e-06     0s
  18   5.47465492e+01  5.47245467e+01  1.54e-11 1.46e-11  1.36e-06     0s
  19   5.47408145e+01  5.47399207e+01  4.70e-12 7.28e-12  5.51e-08     0s
  20   5.47405840e+01  5.47405743e+01  6.25e-12 2.91e-11  5.99e-10     0s
  21   5.47405807e+01  5.47405807e+01  7.64e-12 3.64e-12  5.99e-13     0s
  22   5.47405807e+01  5.47405807e+01  8.53e-13 1.09e-11  2.34e-17     0s

Barrier solved model in 22 iterations and 0.13 seconds (0.11 work units)
Optimal objective 5.47405807e+01

Crossover log...

    1203 DPushes remaining with DInf 0.0000000e+00                 0s
       0 DPushes remaining with DInf 0.0000000e+00                 0s

     310 PPushes remaining with PInf 0.0000000e+00                 0s
       0 PPushes remaining with PInf 0.0000000e+00                 0s

  Push phase complete: Pinf 0.0000000e+00, Dinf 1.1761336e-12      0s

Iteration    Objective       Primal Inf.    Dual Inf.      Time
     359    5.4740581e+01   0.000000e+00   0.000000e+00      0s

Use crossover to convert LP symmetric solution to basic solution...
Crossover log...

       0 DPushes remaining with DInf 0.0000000e+00                 0s

     230 PPushes remaining with PInf 0.0000000e+00                 0s
       0 PPushes remaining with PInf 0.0000000e+00                 0s

  Push phase complete: Pinf 0.0000000e+00, Dinf 1.4869747e-12      0s

Iteration    Objective       Primal Inf.    Dual Inf.      Time
     618    5.4740581e+01   0.000000e+00   0.000000e+00      0s

Solved in 618 iterations and 0.18 seconds (0.14 work units)
Optimal objective  5.474058066e+01

Gurobi 9.5.0 (linux64) logging started Fri Dec  8 11:40:45 2023

Set parameter LogFile to value "/lustre1/scratch/348/vsc34888/JointResearch/05.Models/06.Benchmarking/F.Representative_days_based_on_Line_Benefit_NN_OC_fy_1/RTS24_mod1_ByStages_nc90/openStarNet_RTS24_mod1_ByStages_nc90.log"
Set parameter Method to value 2
Set parameter MIPFocus to value 1
Set parameter Presolve to value 2
Set parameter RINS to value 100
Set parameter MIPGap to value 0.01
Set parameter Threads to value 36
Set parameter TimeLimit to value 259200
Set parameter IterationLimit to value 760000000
Gurobi Optimizer version 9.5.0 build v9.5.0rc5 (linux64)
Thread count: 36 physical cores, 36 logical processors, using up to 36 threads
Optimize a model with 32308 rows, 21793 columns and 87983 nonzeros
Model fingerprint: 0xfa7aa439
Variable types: 21772 continuous, 21 integer (21 binary)
Coefficient statistics:
  Matrix range     [1e-03, 1e+03]
  Objective range  [1e+00, 1e+00]
  Bounds range     [3e-05, 3e+00]
  RHS range        [3e-05, 3e+00]
Presolve removed 19238 rows and 11030 columns
Presolve time: 0.12s
Presolved: 13070 rows, 10763 columns, 47197 nonzeros
Variable types: 10742 continuous, 21 integer (21 binary)
Found heuristic solution: objective 79.6978995
Root relaxation presolve removed 6 rows and 6 columns
Root relaxation presolved: 13064 rows, 10757 columns, 47185 nonzeros

Root barrier log...

Ordering time: 0.00s

Barrier statistics:
 Dense cols : 21
 AA' NZ     : 8.765e+04
 Factor NZ  : 2.509e+05 (roughly 12 MB of memory)
 Factor Ops : 5.144e+06 (less than 1 second per iteration)
 Threads    : 36

                  Objective                Residual
Iter       Primal          Dual         Primal    Dual     Compl     Time
   0   6.43598199e+05 -9.48113242e+07  5.16e+00 2.24e+02  8.63e+03     0s
   1   9.11871422e+04 -2.40842628e+07  6.40e-01 3.07e-09  1.17e+03     0s
   2   3.50292220e+04 -3.67551452e+06  1.56e-01 5.43e-09  1.55e+02     0s
   3   1.63433326e+04 -3.27248727e+05  6.30e-03 8.73e-10  1.15e+01     0s
   4   4.54530050e+03 -4.26061361e+04  9.78e-05 1.01e-10  1.55e+00     0s
   5   1.33543239e+03 -1.05784869e+04  1.46e-05 2.33e-11  3.91e-01     0s
   6   5.63713438e+02 -2.54580444e+03  2.52e-06 5.62e-12  1.02e-01     0s
   7   3.45823582e+02 -7.11478454e+02  1.03e-06 1.57e-12  3.47e-02     0s
   8   1.72581953e+02 -2.13050005e+02  3.76e-07 6.82e-13  1.27e-02     0s
   9   1.08532497e+02 -4.38345651e+01  1.94e-07 9.09e-13  5.00e-03     0s
  10   7.04631389e+01  1.15892360e+01  9.10e-08 9.09e-13  1.93e-03     0s
  11   5.12367539e+01  2.60005948e+01  3.88e-08 9.09e-13  8.28e-04     0s
  12   4.39363109e+01  3.17103206e+01  1.95e-08 9.09e-13  4.01e-04     0s
  13   4.09266015e+01  3.40486903e+01  1.19e-08 4.55e-13  2.26e-04     0s
  14   3.92508638e+01  3.49772814e+01  7.64e-09 9.09e-13  1.40e-04     0s
  15   3.84686451e+01  3.51953340e+01  5.56e-09 9.09e-13  1.07e-04     0s
  16   3.81532493e+01  3.52646554e+01  4.77e-09 9.09e-13  9.48e-05     0s
  17   3.77215167e+01  3.54917254e+01  3.71e-09 1.82e-12  7.32e-05     0s
  18   3.69026420e+01  3.60616798e+01  1.51e-09 9.09e-13  2.76e-05     0s
  19   3.65432398e+01  3.62102873e+01  5.55e-10 1.82e-12  1.09e-05     0s
  20   3.64721256e+01  3.62809508e+01  3.73e-10 9.09e-13  6.28e-06     0s
  21   3.64130088e+01  3.63002130e+01  2.19e-10 9.09e-13  3.70e-06     0s
  22   3.63651495e+01  3.63127663e+01  9.51e-11 9.09e-13  1.72e-06     0s
  23   3.63365368e+01  3.63164095e+01  8.77e-11 4.55e-13  6.61e-07     0s
  24   3.63296708e+01  3.63253885e+01  3.04e-11 9.09e-13  1.41e-07     0s
  25   3.63277751e+01  3.63271784e+01  2.22e-11 9.09e-13  1.96e-08     0s
  26   3.63276023e+01  3.63273602e+01  2.84e-11 1.82e-12  7.95e-09     0s
  27   3.63274442e+01  3.63274117e+01  7.06e-11 9.09e-13  1.07e-09     0s
  28   3.63274265e+01  3.63274250e+01  5.95e-11 1.82e-12  5.21e-11     0s
  29   3.63274263e+01  3.63274263e+01  6.16e-10 1.60e-11  5.97e-13     1s

Barrier solved model in 29 iterations and 0.50 seconds (0.42 work units)
Optimal objective 3.63274263e+01


Root relaxation: objective 3.632743e+01, 1797 iterations, 0.33 seconds (0.24 work units)

    Nodes    |    Current Node    |     Objective Bounds      |     Work
 Expl Unexpl |  Obj  Depth IntInf | Incumbent    BestBd   Gap | It/Node Time

     0     0   36.32743    0   11   79.69790   36.32743  54.4%     -    0s
     0     0   36.49637    0   10   79.69790   36.49637  54.2%     -    1s
H    0     0                      69.9166289   36.53003  47.8%     -    1s
     0     0   36.53003    0   10   69.91663   36.53003  47.8%     -    1s
     0     0   36.82994    0    8   69.91663   36.82994  47.3%     -    1s
H    0     0                      66.5061149   36.82994  44.6%     -    1s
     0     0   36.82994    0    8   66.50611   36.82994  44.6%     -    1s
H    0     0                      66.1519891   36.98854  44.1%     -    2s
     0     0   36.98854    0   10   66.15199   36.98854  44.1%     -    2s
H    0     0                      64.6706989   37.02615  42.7%     -    2s
     0     0   37.20204    0    9   64.67070   37.20204  42.5%     -    2s
     0     0   37.74987    0   10   64.67070   37.74987  41.6%     -    2s
H    0     0                      55.9751987   37.74987  32.6%     -    2s
     0     0   38.12801    0    8   55.97520   38.12801  31.9%     -    2s
     0     0   38.15095    0    9   55.97520   38.15095  31.8%     -    3s
H    0     0                      53.2648200   38.15095  28.4%     -    5s
     0     2   38.15095    0    9   53.26482   38.15095  28.4%     -    6s
    99   116   51.21107    7    9   53.26482   39.94088  25.0%   642   10s
H  109   116                      53.1722936   39.94088  24.9%   627   10s
H  119   116                      52.6320854   39.94088  24.1%   608   10s
H  128   116                      52.6133451   39.94088  24.1%   588   10s
   135   138     cutoff    7        52.61335   39.94088  24.1%   587   16s
H  138   138                      52.4506297   39.94088  23.9%   583   16s
   812   218     cutoff   12        52.45063   40.42168  22.9%   406   20s
  2018     7   50.79016   11    8   52.45063   49.74915  5.15%   289   25s

Cutting planes:
  Implied bound: 2
  MIR: 412
  Relax-and-lift: 91

Explored 2062 nodes (595167 simplex iterations) in 25.25 seconds (32.74 work units)
Thread count was 36 (of 36 available processors)

Solution count 10: 52.4506 52.6133 52.6321 ... 69.9166

Optimal solution found (tolerance 1.00e-02)
Best objective 5.245062970477e+01, best bound 5.245062970477e+01, gap 0.0000%

Gurobi 9.5.0 (linux64) logging started Fri Dec  8 11:41:14 2023

Set parameter LogFile to value "/lustre1/scratch/348/vsc34888/JointResearch/05.Models/06.Benchmarking/F.Representative_days_based_on_Line_Benefit_NN_OC_fy_1/RTS24_mod1_ByStages_nc90/openStarNet_RTS24_mod1_ByStages_nc90.log"
Set parameter Method to value 2
Set parameter MIPFocus to value 1
Set parameter Presolve to value 2
Set parameter RINS to value 100
Set parameter MIPGap to value 0.01
Set parameter Threads to value 36
Set parameter TimeLimit to value 259200
Set parameter IterationLimit to value 760000000
No parameters matching 'relax_integrality' found
Gurobi Optimizer version 9.5.0 build v9.5.0rc5 (linux64)
Thread count: 36 physical cores, 36 logical processors, using up to 36 threads
Optimize a model with 32308 rows, 21772 columns and 80318 nonzeros
Model fingerprint: 0xe62f35e8
Coefficient statistics:
  Matrix range     [1e-03, 1e+03]
  Objective range  [1e+00, 1e+00]
  Bounds range     [3e-05, 3e+00]
  RHS range        [3e-05, 2e+01]
Presolve removed 26825 rows and 12126 columns
Presolve time: 0.04s
Presolved: 5483 rows, 9828 columns, 24684 nonzeros

Ordering time: 0.00s

Barrier statistics:
 AA' NZ     : 1.341e+04
 Factor NZ  : 4.619e+04 (roughly 5 MB of memory)
 Factor Ops : 6.252e+05 (less than 1 second per iteration)
 Threads    : 1

                  Objective                Residual
Iter       Primal          Dual         Primal    Dual     Compl     Time
   0   1.63296404e+06 -6.35542457e+07  7.68e+00 9.41e+02  3.34e+04     0s
   1   1.59139028e+05 -4.27919923e+07  7.41e-01 2.91e-11  4.88e+03     0s
   2   6.85843938e+04 -1.46540946e+07  2.93e-01 5.18e-11  1.39e+03     0s
   3   3.12303822e+04 -4.14122417e+06  5.77e-02 3.46e-11  3.02e+02     0s
   4   2.08426088e+04 -4.14719744e+05  2.92e-03 5.18e-11  2.72e+01     0s
   5   1.16859661e+04 -9.28347917e+04  6.52e-05 2.86e-11  6.41e+00     0s
   6   3.13036318e+03 -2.36638817e+04  1.06e-06 7.28e-12  1.64e+00     0s
   7   7.49442010e+02 -4.14101973e+03  2.31e-08 7.28e-12  3.00e-01     0s
   8   3.10436930e+02 -5.36507435e+02  8.44e-10 7.28e-12  5.19e-02     0s
   9   1.67923674e+02 -1.53344045e+02  2.90e-10 3.64e-12  1.97e-02     0s
  10   1.03923094e+02 -3.96774632e+01  1.23e-10 7.28e-12  8.80e-03     0s
  11   7.72858588e+01  1.14445192e+01  5.48e-11 7.28e-12  4.03e-03     0s
  12   6.67109472e+01  3.73112388e+01  3.02e-11 7.28e-12  1.80e-03     0s
  13   5.71573958e+01  4.73150663e+01  1.18e-11 7.28e-12  6.03e-04     0s
  14   5.34799782e+01  5.15503459e+01  8.53e-12 3.64e-12  1.18e-04     0s
  15   5.27082447e+01  5.22721602e+01  2.44e-11 7.28e-12  2.67e-05     0s
  16   5.25113298e+01  5.23948000e+01  9.43e-12 7.28e-12  7.14e-06     0s
  17   5.24623810e+01  5.24380876e+01  3.90e-11 7.28e-12  1.49e-06     0s
  18   5.24537452e+01  5.24490001e+01  7.68e-12 7.28e-12  2.91e-07     0s
  19   5.24507164e+01  5.24505542e+01  2.24e-11 3.64e-12  9.94e-09     0s
  20   5.24506299e+01  5.24506293e+01  3.52e-11 3.64e-12  3.18e-11     0s
  21   5.24506297e+01  5.24506297e+01  2.38e-11 7.28e-12  3.18e-14     0s

Barrier solved model in 21 iterations and 0.11 seconds (0.11 work units)
Optimal objective 5.24506297e+01

Crossover log...

    1161 DPushes remaining with DInf 0.0000000e+00                 0s
       0 DPushes remaining with DInf 0.0000000e+00                 0s

     326 PPushes remaining with PInf 0.0000000e+00                 0s
       0 PPushes remaining with PInf 0.0000000e+00                 0s

  Push phase complete: Pinf 0.0000000e+00, Dinf 4.8091957e-13      0s

Iteration    Objective       Primal Inf.    Dual Inf.      Time
     353    5.2450630e+01   0.000000e+00   0.000000e+00      0s

Use crossover to convert LP symmetric solution to basic solution...
Crossover log...

       0 DPushes remaining with DInf 0.0000000e+00                 0s

     255 PPushes remaining with PInf 0.0000000e+00                 0s
       0 PPushes remaining with PInf 0.0000000e+00                 0s

  Push phase complete: Pinf 0.0000000e+00, Dinf 1.0080014e-12      0s

Iteration    Objective       Primal Inf.    Dual Inf.      Time
     642    5.2450630e+01   0.000000e+00   0.000000e+00      0s

Solved in 642 iterations and 0.16 seconds (0.14 work units)
Optimal objective  5.245062970e+01

Gurobi 9.5.0 (linux64) logging started Fri Dec  8 15:23:43 2023

Set parameter LogFile to value "/lustre1/scratch/348/vsc34888/JointResearch/05.Models/06.Benchmarking/F.Representative_days_based_on_Line_Benefit_NN_OC_fy_1/RTS24_mod1_ByStages_nc90/openStarNet_RTS24_mod1_ByStages_nc90.log"
Set parameter Method to value 2
Set parameter MIPFocus to value 1
Set parameter Presolve to value 2
Set parameter RINS to value 100
Set parameter MIPGap to value 0.01
Set parameter Threads to value 36
Set parameter TimeLimit to value 259200
Set parameter IterationLimit to value 760000000
Gurobi Optimizer version 9.5.0 build v9.5.0rc5 (linux64)
Thread count: 36 physical cores, 36 logical processors, using up to 36 threads
Optimize a model with 32308 rows, 21818 columns and 88061 nonzeros
Model fingerprint: 0x938d174f
Variable types: 21797 continuous, 21 integer (21 binary)
Coefficient statistics:
  Matrix range     [5e-03, 5e+02]
  Objective range  [1e+00, 1e+00]
  Bounds range     [3e-05, 2e+00]
  RHS range        [3e-05, 2e+00]
Presolve removed 19243 rows and 11066 columns
Presolve time: 0.11s
Presolved: 13065 rows, 10752 columns, 47178 nonzeros
Variable types: 10731 continuous, 21 integer (21 binary)
Found heuristic solution: objective 94.6012735
Root relaxation presolve removed 1 rows and 1 columns
Root relaxation presolved: 13064 rows, 10751 columns, 47176 nonzeros

Root barrier log...

Ordering time: 0.00s

Barrier statistics:
 Dense cols : 21
 AA' NZ     : 8.764e+04
 Factor NZ  : 2.510e+05 (roughly 12 MB of memory)
 Factor Ops : 5.145e+06 (less than 1 second per iteration)
 Threads    : 36

                  Objective                Residual
Iter       Primal          Dual         Primal    Dual     Compl     Time
   0   2.73862280e+06 -6.85763627e+07  2.23e+01 1.98e+02  1.85e+04     0s
   1   9.33780570e+05 -3.69491117e+07  7.48e+00 2.29e+01  5.65e+03     0s
   2   7.12964166e+04 -2.88872890e+07  4.81e-01 1.32e+01  1.21e+03     0s
   3   2.77972675e+04 -3.10990104e+06  8.43e-02 6.96e-10  1.17e+02     0s
   4   1.57206471e+04 -2.43495017e+05  3.65e-03 5.11e-11  8.59e+00     0s
   5   5.40238856e+03 -3.97303443e+04  2.88e-04 6.94e-12  1.48e+00     0s
   6   8.43730051e+02 -6.00389304e+03  1.73e-05 3.01e-12  2.25e-01     0s
   7   3.18769866e+02 -1.72624900e+03  9.71e-08 1.82e-12  6.71e-02     0s
   8   1.82595701e+02 -4.90382961e+02  2.93e-08 1.82e-12  2.21e-02     0s
   9   1.18487069e+02 -1.27448463e+02  1.30e-08 9.09e-13  8.08e-03     0s
  10   7.85237326e+01 -2.15800053e+01  5.73e-09 9.09e-13  3.29e-03     0s
  11   5.99166238e+01  2.28940896e+01  2.45e-09 9.09e-13  1.22e-03     0s
  12   5.34334126e+01  3.21172196e+01  1.41e-09 9.09e-13  7.00e-04     0s
  13   5.03196287e+01  3.58155634e+01  9.25e-10 9.09e-13  4.76e-04     0s
  14   4.85245076e+01  3.82903944e+01  6.31e-10 9.09e-13  3.36e-04     0s
  15   4.74884699e+01  4.08082362e+01  4.51e-10 9.09e-13  2.19e-04     0s
  16   4.65289782e+01  4.15207837e+01  3.00e-10 9.09e-13  1.64e-04     0s
  17   4.56592785e+01  4.34470219e+01  1.44e-10 4.55e-13  7.26e-05     0s
  18   4.52463751e+01  4.42041683e+01  7.72e-11 9.09e-13  3.42e-05     0s
  19   4.48705273e+01  4.44786749e+01  1.86e-11 9.09e-13  1.29e-05     0s
  20   4.48005971e+01  4.46253260e+01  1.23e-11 4.55e-13  5.75e-06     0s
  21   4.47803646e+01  4.46971160e+01  6.16e-11 4.55e-13  2.73e-06     0s
  22   4.47762482e+01  4.47049628e+01  5.35e-11 4.55e-13  2.34e-06     0s
  23   4.47684869e+01  4.47323005e+01  4.36e-11 4.55e-13  1.19e-06     0s
  24   4.47502079e+01  4.47439323e+01  8.62e-10 9.09e-13  2.06e-07     0s
  25   4.47476249e+01  4.47440426e+01  8.20e-10 6.82e-13  1.18e-07     0s
  26   4.47457308e+01  4.47455298e+01  5.01e-11 9.09e-13  6.60e-09     0s
  27   4.47456830e+01  4.47456606e+01  2.26e-11 9.09e-13  7.36e-10     0s
  28   4.47456800e+01  4.47456799e+01  3.66e-11 1.82e-12  2.64e-12     0s

Barrier solved model in 28 iterations and 0.47 seconds (0.41 work units)
Optimal objective 4.47456800e+01


Root relaxation: objective 4.474568e+01, 1631 iterations, 0.31 seconds (0.23 work units)

    Nodes    |    Current Node    |     Objective Bounds      |     Work
 Expl Unexpl |  Obj  Depth IntInf | Incumbent    BestBd   Gap | It/Node Time

     0     0   44.74568    0   15   94.60127   44.74568  52.7%     -    0s
     0     0   46.11087    0   14   94.60127   46.11087  51.3%     -    1s
H    0     0                      90.8245813   46.11087  49.2%     -    1s
H    0     0                      85.0305786   46.17090  45.7%     -    1s
     0     0   46.29701    0   13   85.03058   46.29701  45.6%     -    1s
H    0     0                      81.9602974   46.29701  43.5%     -    1s
     0     0   46.73308    0   11   81.96030   46.73308  43.0%     -    1s
     0     0   46.93056    0   11   81.96030   46.93056  42.7%     -    1s
     0     0   47.45151    0   10   81.96030   47.45151  42.1%     -    2s
     0     0   47.45151    0    9   81.96030   47.45151  42.1%     -    2s
     0     0   47.89122    0   11   81.96030   47.89122  41.6%     -    2s
     0     0   47.89122    0   11   81.96030   47.89122  41.6%     -    2s
H    0     0                      78.5595738   48.00789  38.9%     -    2s
     0     0   48.00789    0   11   78.55957   48.00789  38.9%     -    2s
H    0     0                      70.8362764   48.00789  32.2%     -    3s
H    0     0                      66.7853269   48.00789  28.1%     -    6s
     0     2   48.00789    0   11   66.78533   48.00789  28.1%     -    6s
H   99   127                      65.9181544   50.82581  22.9%   517   11s
   135   153   54.89052    8   13   65.91815   50.94146  22.7%   502   16s
H  139   153                      65.3745281   50.94146  22.1%   497   16s
   572   271   60.63686    8    7   65.37453   51.99811  20.5%   387   20s
  1597   353   60.84676   11    9   65.37453   53.46015  18.2%   318   43s
  1757   356   64.11453   13    7   65.37453   53.46015  18.2%   310   45s
  2100   321   60.39177   10    8   65.37453   55.00942  15.9%   295   67s
  3140    87   64.32075   11    7   65.37453   57.33407  12.3%   247   70s

Cutting planes:
  Gomory: 2
  Implied bound: 77
  MIR: 409
  Relax-and-lift: 50

Explored 3694 nodes (842214 simplex iterations) in 70.64 seconds (124.03 work units)
Thread count was 36 (of 36 available processors)

Solution count 9: 65.3745 65.9182 66.7853 ... 94.6013

Optimal solution found (tolerance 1.00e-02)
Best objective 6.537452810082e+01, best bound 6.477928014086e+01, gap 0.9105%

Gurobi 9.5.0 (linux64) logging started Fri Dec  8 15:24:58 2023

Set parameter LogFile to value "/lustre1/scratch/348/vsc34888/JointResearch/05.Models/06.Benchmarking/F.Representative_days_based_on_Line_Benefit_NN_OC_fy_1/RTS24_mod1_ByStages_nc90/openStarNet_RTS24_mod1_ByStages_nc90.log"
Set parameter Method to value 2
Set parameter MIPFocus to value 1
Set parameter Presolve to value 2
Set parameter RINS to value 100
Set parameter MIPGap to value 0.01
Set parameter Threads to value 36
Set parameter TimeLimit to value 259200
Set parameter IterationLimit to value 760000000
No parameters matching 'relax_integrality' found
Gurobi Optimizer version 9.5.0 build v9.5.0rc5 (linux64)
Thread count: 36 physical cores, 36 logical processors, using up to 36 threads
Optimize a model with 32308 rows, 21797 columns and 80396 nonzeros
Model fingerprint: 0xbe454b1a
Coefficient statistics:
  Matrix range     [5e-03, 5e+02]
  Objective range  [1e+00, 1e+00]
  Bounds range     [3e-05, 2e+00]
  RHS range        [3e-05, 3e+01]
Presolve removed 27007 rows and 12274 columns
Presolve time: 0.04s
Presolved: 5301 rows, 9648 columns, 24256 nonzeros

Ordering time: 0.00s

Barrier statistics:
 AA' NZ     : 1.378e+04
 Factor NZ  : 4.551e+04 (roughly 5 MB of memory)
 Factor Ops : 5.985e+05 (less than 1 second per iteration)
 Threads    : 1

                  Objective                Residual
Iter       Primal          Dual         Primal    Dual     Compl     Time
   0   3.93050225e+06 -2.18079453e+07  1.72e+01 1.66e+03  2.58e+04     0s
   1   2.48711390e+05 -1.85614378e+07  1.10e+00 9.59e-12  2.54e+03     0s
   2   6.84175240e+04 -6.61982893e+06  2.94e-01 2.20e-11  6.24e+02     0s
   3   2.83960149e+04 -2.26560445e+06  4.97e-02 1.21e-11  1.59e+02     0s
   4   1.83086185e+04 -6.13077344e+05  4.51e-03 7.05e-12  3.93e+01     0s
   5   9.58228680e+03 -1.20773292e+05  8.60e-08 6.26e-12  7.99e+00     0s
   6   3.24040144e+03 -2.14068652e+04  9.63e-09 3.64e-12  1.51e+00     0s
   7   5.49350637e+02 -2.75721450e+03  9.14e-12 1.82e-12  2.03e-01     0s
   8   2.76835114e+02 -3.85171118e+02  2.61e-12 1.82e-12  4.06e-02     0s
   9   1.46619172e+02 -1.20400612e+02  3.31e-12 1.82e-12  1.64e-02     0s
  10   1.04889103e+02 -1.30680442e+01  3.66e-12 1.82e-12  7.23e-03     0s
  11   8.45587515e+01  3.54417030e+01  1.83e-12 1.82e-12  3.01e-03     0s
  12   7.29609636e+01  5.38346377e+01  1.02e-12 1.82e-12  1.17e-03     0s
  13   6.80616970e+01  6.32049212e+01  7.62e-12 3.64e-12  2.98e-04     0s
  14   6.56236828e+01  6.50955560e+01  3.26e-11 1.82e-12  3.24e-05     0s
  15   6.54072201e+01  6.53445109e+01  1.49e-11 1.82e-12  3.84e-06     0s
  16   6.53776111e+01  6.53675352e+01  4.97e-11 1.82e-12  6.18e-07     0s
  17   6.53746343e+01  6.53744945e+01  5.03e-11 1.82e-12  8.57e-09     0s
  18   6.53745282e+01  6.53745281e+01  6.58e-12 1.82e-12  8.57e-12     0s
  19   6.53745281e+01  6.53745281e+01  5.66e-12 3.64e-12  1.81e-17     0s

Barrier solved model in 19 iterations and 0.11 seconds (0.11 work units)
Optimal objective 6.53745281e+01

Crossover log...

    1173 DPushes remaining with DInf 0.0000000e+00                 0s
       0 DPushes remaining with DInf 0.0000000e+00                 0s

     310 PPushes remaining with PInf 0.0000000e+00                 0s
       0 PPushes remaining with PInf 0.0000000e+00                 0s

  Push phase complete: Pinf 0.0000000e+00, Dinf 4.6419802e-13      0s

Iteration    Objective       Primal Inf.    Dual Inf.      Time
     321    6.5374528e+01   0.000000e+00   0.000000e+00      0s

Use crossover to convert LP symmetric solution to basic solution...
Crossover log...

       0 DPushes remaining with DInf 0.0000000e+00                 0s

     248 PPushes remaining with PInf 0.0000000e+00                 0s
       0 PPushes remaining with PInf 0.0000000e+00                 0s

  Push phase complete: Pinf 0.0000000e+00, Dinf 7.3112949e-13      0s

Iteration    Objective       Primal Inf.    Dual Inf.      Time
     614    6.5374528e+01   0.000000e+00   0.000000e+00      0s

Solved in 614 iterations and 0.16 seconds (0.13 work units)
Optimal objective  6.537452810e+01
